\* Problem: findWCET *\

Maximize
 z: + 658831 x0 + 4830246 x1 + 721212 x2 + 3144388 x3 + 225079 x4
 + 73883 x5 + 20810614 x6 + 1500 CFT

Subject To
 c1: + 1500 CFT + 20810614 x6 + 73883 x5 + 225079 x4 + 3144388 x3
 + 721212 x2 + 4830246 x1 + 658831 x0 <= 23720000
 c2: - CFT + x6 + x5 + x4 + x3 + x2 + x1 + x0 = 0

Generals
 x0
 x1
 x2
 x3
 x4
 x5
 x6
 CFT

End
